Memory budget  5.5  GB
Batch size  176
Model vgg16
Mode inplace_conv_multiway_newnode
[1, 2, 4, 5, 9, 10, 12, 13, 17, 18, 20, 21, 23, 24, 28, 29, 31, 32, 34, 35, 39, 40, 42, 43, 45, 46, 52, 53, 56, 57]
Using license file /home/cc/gurobi.lic
Academic license - for non-commercial use only
Parameter OutputFlag unchanged
   Value: 1  Min: 0  Max: 1  Default: 1
Changed value of parameter QCPDual to 1
   Prev: 0  Min: 0  Max: 1  Default: 0
Changed value of parameter Threads to 12
   Prev: 0  Min: 0  Max: 1024  Default: 0
Changed value of parameter TimeLimit to 7200.0
   Prev: inf  Min: 0.0  Max: inf  Default: inf
Changed value of parameter Method to 1
   Prev: -1  Min: -1  Max: 5  Default: -1
Gurobi Optimizer version 9.0.2 build v9.0.2rc0 (linux64)
Optimize a model with 123122 rows, 31924 columns and 1440724 nonzeros
Model fingerprint: 0xd53651d5
Variable types: 0 continuous, 31924 integer (0 binary)
Coefficient statistics:
  Matrix range     [1e+00, 4e+07]
  Objective range  [1e+00, 1e+05]
  Bounds range     [0e+00, 0e+00]
  RHS range        [1e+00, 4e+07]
Presolve removed 101660 rows and 21304 columns (presolve time = 5s) ...
Presolve removed 103148 rows and 21691 columns
Presolve time: 7.72s
Presolved: 19974 rows, 10233 columns, 208095 nonzeros
Variable types: 0 continuous, 10233 integer (9728 binary)
Found heuristic solution: objective 1395386.0000
Found heuristic solution: objective 280970.00000

Root simplex log...

Iteration    Objective       Primal Inf.    Dual Inf.      Time
       0    9.2253000e+04   2.568200e+04   0.000000e+00      8s
    1967    1.4317979e+05   0.000000e+00   0.000000e+00      8s

Root relaxation: objective 1.431798e+05, 1967 iterations, 0.15 seconds

    Nodes    |    Current Node    |     Objective Bounds      |     Work
 Expl Unexpl |  Obj  Depth IntInf | Incumbent    BestBd   Gap | It/Node Time

     0     0 143179.793    0  333 280970.000 143179.793  49.0%     -    8s
H    0     0                    156445.00000 143179.793  8.48%     -    8s
     0     0 145702.813    0  518 156445.000 145702.813  6.87%     -    9s
     0     0 145911.265    0  551 156445.000 145911.265  6.73%     -    9s
     0     0 145911.265    0  451 156445.000 145911.265  6.73%     -    9s
     0     0 148263.021    0  366 156445.000 148263.021  5.23%     -   10s
     0     0 148687.459    0  845 156445.000 148687.459  4.96%     -   11s
     0     0 148705.769    0  880 156445.000 148705.769  4.95%     -   11s
     0     0 148705.782    0  881 156445.000 148705.782  4.95%     -   11s
     0     0 149222.292    0  586 156445.000 149222.292  4.62%     -   11s
     0     0 149416.111    0  776 156445.000 149416.111  4.49%     -   12s
     0     0 149680.449    0  792 156445.000 149680.449  4.32%     -   13s
H    0     0                    154023.00000 149680.449  2.82%     -   13s
     0     0 149732.548    0  804 154023.000 149732.548  2.79%     -   14s
     0     0 149732.548    0  859 154023.000 149732.548  2.79%     -   14s
     0     0 149732.548    0  768 154023.000 149732.548  2.79%     -   14s
     0     0 151251.000    0  832 154023.000 151251.000  1.80%     -   15s
     0     0 152493.950    0  834 154023.000 152493.950  0.99%     -   15s
     0     0 152493.950    0  888 154023.000 152493.950  0.99%     -   15s
     0     0 152766.500    0  881 154023.000 152766.500  0.82%     -   16s

Cutting planes:
  Gomory: 6
  Cover: 18
  Implied bound: 2
  Clique: 92
  MIR: 13
  StrongCG: 2
  Zero half: 16
  RLT: 55

Explored 1 nodes (6303 simplex iterations) in 17.36 seconds
Thread count was 12 (of 48 available processors)

Solution count 4: 154023 156445 280970 1.39539e+06 

Optimal solution found (tolerance 1.00e-04)
Best objective 1.540230000000e+05, best bound 1.540230000000e+05, gap 0.0000%
Memory budget  5.5  GB
Batch size  176
Model vgg16
Mode inplace_conv_multiway_newnode
Loading solver_info, solution from ../data/cvxpy_solution_vgg16_176_inplace_conv_multiway_newnode_5.5.00.pkl
Memory budget  5.5  GB
Batch size  176
Model vgg16
Mode inplace_conv_multiway_newnode
Loading solver_info, solution from ../data/cvxpy_solution_vgg16_176_inplace_conv_multiway_newnode_5.50.pkl
autosave: 1520.153223ms avg, -1.000000s last iteration,  5639.71 MB
